11
2147483647 54 97 71 21 11 70 76 74 20 39 
54 2147483647 96 17 16 2 14 70 82 95 59 
97 96 2147483647 30 68 38 57 23 70 98 13 
71 17 30 2147483647 66 69 11 31 3 9 51 
21 16 68 66 2147483647 95 59 85 56 43 59 
11 2 38 69 95 2147483647 45 86 49 25 46 
70 14 57 11 59 45 2147483647 34 36 11 37 
76 70 23 31 85 86 34 2147483647 77 84 79 
74 82 70 3 56 49 36 77 2147483647 54 31 
20 95 98 9 43 25 11 84 54 2147483647 89 
39 59 13 51 59 46 37 79 31 89 2147483647 
